32 100000
36 70928
74 56578
84 52637
4 61666
95 21070
16 52130
49 46407
22 26774
83 35314
73 76300
23 92982
1 34630
95 98249
78 90103
86 55981
11 81908
90 45260
85 78887
90 26707
74 15052
41 56018
88 18171
70 41055
41 30308
72 58637
85 26652
45 44622
7 89750
80 91926
8 17932
39 72
19 99396
